\ENCODING=ISO-8859-1
\Problem name: ilog.cplex

Minimize
 obj1: 0.577 x1 + 1.239 x2 + 1.878 x3 + 1.227 x4 + 1.96 x5 + 1.241 x6
       + 0.606 x7 + 0.611 x8 + 1.277 x9 + 1.246 x10 + 400 x11 + 0.597 x12
       + 1.154 x13 + 1.945 x14 + 1.261 x15 + 1.982 x16 + 1.225 x17 + 0.613 x18
       + 0.606 x19 + 1.307 x20 + 1.252 x21 + 400 x22 + 0.592 x23 + 1.245 x24
       + 1.731 x25 + 1.224 x26 + 1.924 x27 + 1.238 x28 + 0.607 x29 + 0.61 x30
       + 1.275 x31 + 1.232 x32 + 400 x33 + 0.595 x34 + 1.261 x35 + 1.894 x36
       + 1.154 x37 + 1.961 x38 + 1.258 x39 + 0.603 x40 + 0.614 x41 + 1.257 x42
       + 1.251 x43 + 400 x44 + 0.6 x45 + 1.26 x46 + 1.924 x47 + 1.252 x48
       + 1.731 x49 + 1.241 x50 + 0.612 x51 + 0.607 x52 + 1.29 x53 + 1.207 x54
       + 400 x55 + 0.598 x56 + 1.225 x57 + 1.926 x58 + 1.258 x59 + 1.935 x60
       + 1.154 x61 + 0.613 x62 + 0.604 x63 + 1.304 x64 + 1.232 x65 + 400 x66
       + 0.606 x67 + 1.307 x68 + 2.035 x69 + 1.263 x70 + 2.088 x71 + 1.309 x72
       + 0.577 x73 + 0.625 x74 + 1.232 x75 + 1.303 x76 + 400 x77 + 0.611 x78
       + 1.277 x79 + 2.07 x80 + 1.314 x81 + 2.037 x82 + 1.267 x83 + 0.625 x84
       + 0.577 x85 + 1.357 x86 + 1.278 x87 + 400 x88 + 0.606 x89 + 1.307 x90
       + 2.019 x91 + 1.257 x92 + 2.056 x93 + 1.304 x94 + 0.596 x95 + 0.624 x96
       + 1.154 x97 + 1.292 x98 + 400 x99 + 0.599 x100 + 1.252 x101 + 1.913 x102
       + 1.251 x103 + 1.853 x104 + 1.232 x105 + 0.612 x106 + 0.606 x107
       + 1.292 x108 + 1.154 x109 + 400 x110 + 0 x112 + 0 x114 + 0 x115 + 0 x116
       + 0 x118 + 0 x120 + 0 x121 + 0 x122 + 0 x124 + 0 x126 + 0 x127 + 0 x128
       + 0 x130 + 0 x132 + 0 x133 + 0 x134 + 0 x136 + 0 x138 + 0 x139 + 0 x140
       + 0 x142 + 0 x144 + 0 x145 + 0 x146 + 0 x148 + 0 x150 + 0 x151 + 0 x152
       + 0 x154 + 0 x156 + 0 x157 + 0 x158 + 0 x160 + 0 x162 + 0 x163 + 0 x164
       + 0 x166 + 0 x168 + 0 x169 + 0 x170 + 10.9615384615385
Subject To
 c1:  x11 + x22 + x33 + x44 + x55 + x66 + x77 + x88 + x99 + x110 >= 1
 c2:  x110 + x111  = 1
 c3:  x110 + x113  = 1
 c4:  x99 + x117  = 1
 c5:  x99 + x119  = 1
 c6:  x88 + x123  = 1
 c7:  x88 + x125  = 1
 c8:  x77 + x129  = 1
 c9:  x77 + x131  = 1
 c10: x66 + x135  = 1
 c11: x66 + x137  = 1
 c12: x55 + x141  = 1
 c13: x55 + x143  = 1
 c14: x44 + x147  = 1
 c15: x44 + x149  = 1
 c16: x33 + x153  = 1
 c17: x33 + x155  = 1
 c18: x22 + x159  = 1
 c19: x22 + x161  = 1
 c20: x11 + x165  = 1
 c21: x11 + x167  = 1
 c22: x109  = 0
 c23: x97  = 0
 c24: x85  = 0
 c25: x73  = 0
 c26: x61  = 0
 c27: x49  = 0
 c28: x37  = 0
 c29: x25  = 0
 c30: x13  = 0
 c31: x1  = 0
 IloI0:  x112 = 1 <-> x10 + x21 + x32 + x43 + x54 + x65 + x76 + x87 + x98
         + x109  = 1
 IloI1:  x111 = 1 -> x112  = 1
 IloI2:  x114 = 1 <-> x100 + x101 + x102 + x103 + x104 + x105 + x106 + x107
         + x108 + x109  = 0
 IloI3:  x113 = 1 -> x114  = 1
 IloI4:  x116 = 1 <-> x10 + x21 + x32 + x43 + x54 + x65 + x76 + x87 + x98
         + x109  = 0
 IloI5:  x110 = 1 -> x116  = 1
 IloI6:  x118 = 1 <-> x9 + x20 + x31 + x42 + x53 + x64 + x75 + x86 + x97 + x108
          = 1
 IloI7:  x117 = 1 -> x118  = 1
 IloI8:  x120 = 1 <-> x89 + x90 + x91 + x92 + x93 + x94 + x95 + x96 + x97 + x98
          = 0
 IloI9:  x119 = 1 -> x120  = 1
 IloI10: x122 = 1 <-> x9 + x20 + x31 + x42 + x53 + x64 + x75 + x86 + x97 + x108
          = 0
 IloI11: x99 = 1 -> x122  = 1
 IloI12: x124 = 1 <-> x8 + x19 + x30 + x41 + x52 + x63 + x74 + x85 + x96 + x107
          = 1
 IloI13: x123 = 1 -> x124  = 1
 IloI14: x126 = 1 <-> x78 + x79 + x80 + x81 + x82 + x83 + x84 + x85 + x86 + x87
          = 0
 IloI15: x125 = 1 -> x126  = 1
 IloI16: x128 = 1 <-> x8 + x19 + x30 + x41 + x52 + x63 + x74 + x85 + x96 + x107
          = 0
 IloI17: x88 = 1 -> x128  = 1
 IloI18: x130 = 1 <-> x7 + x18 + x29 + x40 + x51 + x62 + x73 + x84 + x95 + x106
          = 1
 IloI19: x129 = 1 -> x130  = 1
 IloI20: x132 = 1 <-> x67 + x68 + x69 + x70 + x71 + x72 + x73 + x74 + x75 + x76
          = 0
 IloI21: x131 = 1 -> x132  = 1
 IloI22: x134 = 1 <-> x7 + x18 + x29 + x40 + x51 + x62 + x73 + x84 + x95 + x106
          = 0
 IloI23: x77 = 1 -> x134  = 1
 IloI24: x136 = 1 <-> x6 + x17 + x28 + x39 + x50 + x61 + x72 + x83 + x94 + x105
          = 1
 IloI25: x135 = 1 -> x136  = 1
 IloI26: x138 = 1 <-> x56 + x57 + x58 + x59 + x60 + x61 + x62 + x63 + x64 + x65
          = 0
 IloI27: x137 = 1 -> x138  = 1
 IloI28: x140 = 1 <-> x6 + x17 + x28 + x39 + x50 + x61 + x72 + x83 + x94 + x105
          = 0
 IloI29: x66 = 1 -> x140  = 1
 IloI30: x142 = 1 <-> x5 + x16 + x27 + x38 + x49 + x60 + x71 + x82 + x93 + x104
          = 1
 IloI31: x141 = 1 -> x142  = 1
 IloI32: x144 = 1 <-> x45 + x46 + x47 + x48 + x49 + x50 + x51 + x52 + x53 + x54
          = 0
 IloI33: x143 = 1 -> x144  = 1
 IloI34: x146 = 1 <-> x5 + x16 + x27 + x38 + x49 + x60 + x71 + x82 + x93 + x104
          = 0
 IloI35: x55 = 1 -> x146  = 1
 IloI36: x148 = 1 <-> x4 + x15 + x26 + x37 + x48 + x59 + x70 + x81 + x92 + x103
          = 1
 IloI37: x147 = 1 -> x148  = 1
 IloI38: x150 = 1 <-> x34 + x35 + x36 + x37 + x38 + x39 + x40 + x41 + x42 + x43
          = 0
 IloI39: x149 = 1 -> x150  = 1
 IloI40: x152 = 1 <-> x4 + x15 + x26 + x37 + x48 + x59 + x70 + x81 + x92 + x103
          = 0
 IloI41: x44 = 1 -> x152  = 1
 IloI42: x154 = 1 <-> x3 + x14 + x25 + x36 + x47 + x58 + x69 + x80 + x91 + x102
          = 1
 IloI43: x153 = 1 -> x154  = 1
 IloI44: x156 = 1 <-> x23 + x24 + x25 + x26 + x27 + x28 + x29 + x30 + x31 + x32
          = 0
 IloI45: x155 = 1 -> x156  = 1
 IloI46: x158 = 1 <-> x3 + x14 + x25 + x36 + x47 + x58 + x69 + x80 + x91 + x102
          = 0
 IloI47: x33 = 1 -> x158  = 1
 IloI48: x160 = 1 <-> x2 + x13 + x24 + x35 + x46 + x57 + x68 + x79 + x90 + x101
          = 1
 IloI49: x159 = 1 -> x160  = 1
 IloI50: x162 = 1 <-> x12 + x13 + x14 + x15 + x16 + x17 + x18 + x19 + x20 + x21
          = 0
 IloI51: x161 = 1 -> x162  = 1
 IloI52: x164 = 1 <-> x2 + x13 + x24 + x35 + x46 + x57 + x68 + x79 + x90 + x101
          = 0
 IloI53: x22 = 1 -> x164  = 1
 IloI54: x166 = 1 <-> x1 + x12 + x23 + x34 + x45 + x56 + x67 + x78 + x89 + x100
          = 1
 IloI55: x165 = 1 -> x166  = 1
 IloI56: x168 = 1 <-> x1 + x2 + x3 + x4 + x5 + x6 + x7 + x8 + x9 + x10  = 0
 IloI57: x167 = 1 -> x168  = 1
 IloI58: x170 = 1 <-> x1 + x12 + x23 + x34 + x45 + x56 + x67 + x78 + x89 + x100
          = 0
 IloI59: x11 = 1 -> x170  = 1
Bounds
 0 <= x1 <= 1
 0 <= x2 <= 1
 0 <= x3 <= 1
 0 <= x4 <= 1
 0 <= x5 <= 1
 0 <= x6 <= 1
 0 <= x7 <= 1
 0 <= x8 <= 1
 0 <= x9 <= 1
 0 <= x10 <= 1
 0 <= x11 <= 1
 0 <= x12 <= 1
 0 <= x13 <= 1
 0 <= x14 <= 1
 0 <= x15 <= 1
 0 <= x16 <= 1
 0 <= x17 <= 1
 0 <= x18 <= 1
 0 <= x19 <= 1
 0 <= x20 <= 1
 0 <= x21 <= 1
 0 <= x22 <= 1
 0 <= x23 <= 1
 0 <= x24 <= 1
 0 <= x25 <= 1
 0 <= x26 <= 1
 0 <= x27 <= 1
 0 <= x28 <= 1
 0 <= x29 <= 1
 0 <= x30 <= 1
 0 <= x31 <= 1
 0 <= x32 <= 1
 0 <= x33 <= 1
 0 <= x34 <= 1
 0 <= x35 <= 1
 0 <= x36 <= 1
 0 <= x37 <= 1
 0 <= x38 <= 1
 0 <= x39 <= 1
 0 <= x40 <= 1
 0 <= x41 <= 1
 0 <= x42 <= 1
 0 <= x43 <= 1
 0 <= x44 <= 1
 0 <= x45 <= 1
 0 <= x46 <= 1
 0 <= x47 <= 1
 0 <= x48 <= 1
 0 <= x49 <= 1
 0 <= x50 <= 1
 0 <= x51 <= 1
 0 <= x52 <= 1
 0 <= x53 <= 1
 0 <= x54 <= 1
 0 <= x55 <= 1
 0 <= x56 <= 1
 0 <= x57 <= 1
 0 <= x58 <= 1
 0 <= x59 <= 1
 0 <= x60 <= 1
 0 <= x61 <= 1
 0 <= x62 <= 1
 0 <= x63 <= 1
 0 <= x64 <= 1
 0 <= x65 <= 1
 0 <= x66 <= 1
 0 <= x67 <= 1
 0 <= x68 <= 1
 0 <= x69 <= 1
 0 <= x70 <= 1
 0 <= x71 <= 1
 0 <= x72 <= 1
 0 <= x73 <= 1
 0 <= x74 <= 1
 0 <= x75 <= 1
 0 <= x76 <= 1
 0 <= x77 <= 1
 0 <= x78 <= 1
 0 <= x79 <= 1
 0 <= x80 <= 1
 0 <= x81 <= 1
 0 <= x82 <= 1
 0 <= x83 <= 1
 0 <= x84 <= 1
 0 <= x85 <= 1
 0 <= x86 <= 1
 0 <= x87 <= 1
 0 <= x88 <= 1
 0 <= x89 <= 1
 0 <= x90 <= 1
 0 <= x91 <= 1
 0 <= x92 <= 1
 0 <= x93 <= 1
 0 <= x94 <= 1
 0 <= x95 <= 1
 0 <= x96 <= 1
 0 <= x97 <= 1
 0 <= x98 <= 1
 0 <= x99 <= 1
 0 <= x100 <= 1
 0 <= x101 <= 1
 0 <= x102 <= 1
 0 <= x103 <= 1
 0 <= x104 <= 1
 0 <= x105 <= 1
 0 <= x106 <= 1
 0 <= x107 <= 1
 0 <= x108 <= 1
 0 <= x109 <= 1
 0 <= x110 <= 1
 0 <= x111 <= 1
 0 <= x112 <= 1
 0 <= x113 <= 1
 0 <= x114 <= 1
 0 <= x115 <= 1
 0 <= x116 <= 1
 0 <= x117 <= 1
 0 <= x118 <= 1
 0 <= x119 <= 1
 0 <= x120 <= 1
 0 <= x121 <= 1
 0 <= x122 <= 1
 0 <= x123 <= 1
 0 <= x124 <= 1
 0 <= x125 <= 1
 0 <= x126 <= 1
 0 <= x127 <= 1
 0 <= x128 <= 1
 0 <= x129 <= 1
 0 <= x130 <= 1
 0 <= x131 <= 1
 0 <= x132 <= 1
 0 <= x133 <= 1
 0 <= x134 <= 1
 0 <= x135 <= 1
 0 <= x136 <= 1
 0 <= x137 <= 1
 0 <= x138 <= 1
 0 <= x139 <= 1
 0 <= x140 <= 1
 0 <= x141 <= 1
 0 <= x142 <= 1
 0 <= x143 <= 1
 0 <= x144 <= 1
 0 <= x145 <= 1
 0 <= x146 <= 1
 0 <= x147 <= 1
 0 <= x148 <= 1
 0 <= x149 <= 1
 0 <= x150 <= 1
 0 <= x151 <= 1
 0 <= x152 <= 1
 0 <= x153 <= 1
 0 <= x154 <= 1
 0 <= x155 <= 1
 0 <= x156 <= 1
 0 <= x157 <= 1
 0 <= x158 <= 1
 0 <= x159 <= 1
 0 <= x160 <= 1
 0 <= x161 <= 1
 0 <= x162 <= 1
 0 <= x163 <= 1
 0 <= x164 <= 1
 0 <= x165 <= 1
 0 <= x166 <= 1
 0 <= x167 <= 1
 0 <= x168 <= 1
 0 <= x169 <= 1
 0 <= x170 <= 1
Binaries
 x1  x2  x3  x4  x5  x6  x7  x8  x9  x10  x11  x12  x13  x14  x15  x16  x17 
 x18  x19  x20  x21  x22  x23  x24  x25  x26  x27  x28  x29  x30  x31  x32 
 x33  x34  x35  x36  x37  x38  x39  x40  x41  x42  x43  x44  x45  x46  x47 
 x48  x49  x50  x51  x52  x53  x54  x55  x56  x57  x58  x59  x60  x61  x62 
 x63  x64  x65  x66  x67  x68  x69  x70  x71  x72  x73  x74  x75  x76  x77 
 x78  x79  x80  x81  x82  x83  x84  x85  x86  x87  x88  x89  x90  x91  x92 
 x93  x94  x95  x96  x97  x98  x99  x100  x101  x102  x103  x104  x105  x106 
 x107  x108  x109  x110  x111  x112  x113  x114  x115  x116  x117  x118  x119 
 x120  x121  x122  x123  x124  x125  x126  x127  x128  x129  x130  x131  x132 
 x133  x134  x135  x136  x137  x138  x139  x140  x141  x142  x143  x144  x145 
 x146  x147  x148  x149  x150  x151  x152  x153  x154  x155  x156  x157  x158 
 x159  x160  x161  x162  x163  x164  x165  x166  x167  x168  x169  x170 
End
